first-half-model.lp
Minimize
s0_0

Subject To
x0_0 + x0_1 + x0_2 + x0_3 + x0_4 + x0_5 + x0_6 + x0_7 + x0_8 + x0_9 + x0_10 + x0_11 + x0_12 + x0_13 + x0_14 + x0_15 + x0_16 + x0_17 + x0_18 + x0_19 + x0_20 + x0_21 + x0_22 + x0_23 + x0_24 + x0_25 + x0_26 + x0_27 + x0_28 + x0_29 + x0_30 + x0_31 = 1
x0_25 = 1

s0_0 = 0
s0_0 - x0_9 - f0_0 + f0_16 + s0_1 >= 0
s0_0 + x0_9 + f0_0 - f0_16 - s0_1 >= 0
s0_0 + x0_9 - f0_0 - f0_16 + s0_1 >= 0
s0_0 - x0_9 + f0_0 - f0_16 + s0_1 >= 0
s0_0 + x0_9 - f0_0 + f0_16 - s0_1 >= 0
s0_0 - x0_9 + f0_0 + f0_16 - s0_1 >= 0
x0_9 - s0_0 + f0_0 + f0_16 + s0_1 >= 0
s0_0 + x0_9 + f0_0 + f0_16 + s0_1 <= 4
s0_1 - x0_10 - f0_1 + f0_17 + s0_2 >= 0
s0_1 + x0_10 + f0_1 - f0_17 - s0_2 >= 0
s0_1 + x0_10 - f0_1 - f0_17 + s0_2 >= 0
s0_1 - x0_10 + f0_1 - f0_17 + s0_2 >= 0
s0_1 + x0_10 - f0_1 + f0_17 - s0_2 >= 0
s0_1 - x0_10 + f0_1 + f0_17 - s0_2 >= 0
x0_10 - s0_1 + f0_1 + f0_17 + s0_2 >= 0
s0_1 + x0_10 + f0_1 + f0_17 + s0_2 <= 4
s0_2 - x0_11 - f0_2 + f0_18 + s0_3 >= 0
s0_2 + x0_11 + f0_2 - f0_18 - s0_3 >= 0
s0_2 + x0_11 - f0_2 - f0_18 + s0_3 >= 0
s0_2 - x0_11 + f0_2 - f0_18 + s0_3 >= 0
s0_2 + x0_11 - f0_2 + f0_18 - s0_3 >= 0
s0_2 - x0_11 + f0_2 + f0_18 - s0_3 >= 0
x0_11 - s0_2 + f0_2 + f0_18 + s0_3 >= 0
s0_2 + x0_11 + f0_2 + f0_18 + s0_3 <= 4
s0_3 - x0_12 - f0_3 + f0_19 + s0_4 >= 0
s0_3 + x0_12 + f0_3 - f0_19 - s0_4 >= 0
s0_3 + x0_12 - f0_3 - f0_19 + s0_4 >= 0
s0_3 - x0_12 + f0_3 - f0_19 + s0_4 >= 0
s0_3 + x0_12 - f0_3 + f0_19 - s0_4 >= 0
s0_3 - x0_12 + f0_3 + f0_19 - s0_4 >= 0
x0_12 - s0_3 + f0_3 + f0_19 + s0_4 >= 0
s0_3 + x0_12 + f0_3 + f0_19 + s0_4 <= 4
s0_4 - x0_13 - f0_4 + f0_20 + s0_5 >= 0
s0_4 + x0_13 + f0_4 - f0_20 - s0_5 >= 0
s0_4 + x0_13 - f0_4 - f0_20 + s0_5 >= 0
s0_4 - x0_13 + f0_4 - f0_20 + s0_5 >= 0
s0_4 + x0_13 - f0_4 + f0_20 - s0_5 >= 0
s0_4 - x0_13 + f0_4 + f0_20 - s0_5 >= 0
x0_13 - s0_4 + f0_4 + f0_20 + s0_5 >= 0
s0_4 + x0_13 + f0_4 + f0_20 + s0_5 <= 4
s0_5 - x0_14 - f0_5 + f0_21 + s0_6 >= 0
s0_5 + x0_14 + f0_5 - f0_21 - s0_6 >= 0
s0_5 + x0_14 - f0_5 - f0_21 + s0_6 >= 0
s0_5 - x0_14 + f0_5 - f0_21 + s0_6 >= 0
s0_5 + x0_14 - f0_5 + f0_21 - s0_6 >= 0
s0_5 - x0_14 + f0_5 + f0_21 - s0_6 >= 0
x0_14 - s0_5 + f0_5 + f0_21 + s0_6 >= 0
s0_5 + x0_14 + f0_5 + f0_21 + s0_6 <= 4
s0_6 - x0_15 - f0_6 + f0_22 + s0_7 >= 0
s0_6 + x0_15 + f0_6 - f0_22 - s0_7 >= 0
s0_6 + x0_15 - f0_6 - f0_22 + s0_7 >= 0
s0_6 - x0_15 + f0_6 - f0_22 + s0_7 >= 0
s0_6 + x0_15 - f0_6 + f0_22 - s0_7 >= 0
s0_6 - x0_15 + f0_6 + f0_22 - s0_7 >= 0
x0_15 - s0_6 + f0_6 + f0_22 + s0_7 >= 0
s0_6 + x0_15 + f0_6 + f0_22 + s0_7 <= 4
s0_7 - x0_0 - f0_7 + f0_23 + s0_8 >= 0
s0_7 + x0_0 + f0_7 - f0_23 - s0_8 >= 0
s0_7 + x0_0 - f0_7 - f0_23 + s0_8 >= 0
s0_7 - x0_0 + f0_7 - f0_23 + s0_8 >= 0
s0_7 + x0_0 - f0_7 + f0_23 - s0_8 >= 0
s0_7 - x0_0 + f0_7 + f0_23 - s0_8 >= 0
x0_0 - s0_7 + f0_7 + f0_23 + s0_8 >= 0
s0_7 + x0_0 + f0_7 + f0_23 + s0_8 <= 4
s0_8 - x0_1 - f0_8 + f0_24 + s0_9 >= 0
s0_8 + x0_1 + f0_8 - f0_24 - s0_9 >= 0
s0_8 + x0_1 - f0_8 - f0_24 + s0_9 >= 0
s0_8 - x0_1 + f0_8 - f0_24 + s0_9 >= 0
s0_8 + x0_1 - f0_8 + f0_24 - s0_9 >= 0
s0_8 - x0_1 + f0_8 + f0_24 - s0_9 >= 0
x0_1 - s0_8 + f0_8 + f0_24 + s0_9 >= 0
s0_8 + x0_1 + f0_8 + f0_24 + s0_9 <= 4
s0_9 - x0_2 - f0_9 + f0_25 + s0_10 >= 0
s0_9 + x0_2 + f0_9 - f0_25 - s0_10 >= 0
s0_9 + x0_2 - f0_9 - f0_25 + s0_10 >= 0
s0_9 - x0_2 + f0_9 - f0_25 + s0_10 >= 0
s0_9 + x0_2 - f0_9 + f0_25 - s0_10 >= 0
s0_9 - x0_2 + f0_9 + f0_25 - s0_10 >= 0
x0_2 - s0_9 + f0_9 + f0_25 + s0_10 >= 0
s0_9 + x0_2 + f0_9 + f0_25 + s0_10 <= 4
s0_10 - x0_3 - f0_10 + f0_26 + s0_11 >= 0
s0_10 + x0_3 + f0_10 - f0_26 - s0_11 >= 0
s0_10 + x0_3 - f0_10 - f0_26 + s0_11 >= 0
s0_10 - x0_3 + f0_10 - f0_26 + s0_11 >= 0
s0_10 + x0_3 - f0_10 + f0_26 - s0_11 >= 0
s0_10 - x0_3 + f0_10 + f0_26 - s0_11 >= 0
x0_3 - s0_10 + f0_10 + f0_26 + s0_11 >= 0
s0_10 + x0_3 + f0_10 + f0_26 + s0_11 <= 4
s0_11 - x0_4 - f0_11 + f0_27 + s0_12 >= 0
s0_11 + x0_4 + f0_11 - f0_27 - s0_12 >= 0
s0_11 + x0_4 - f0_11 - f0_27 + s0_12 >= 0
s0_11 - x0_4 + f0_11 - f0_27 + s0_12 >= 0
s0_11 + x0_4 - f0_11 + f0_27 - s0_12 >= 0
s0_11 - x0_4 + f0_11 + f0_27 - s0_12 >= 0
x0_4 - s0_11 + f0_11 + f0_27 + s0_12 >= 0
s0_11 + x0_4 + f0_11 + f0_27 + s0_12 <= 4
s0_12 - x0_5 - f0_12 + f0_28 + s0_13 >= 0
s0_12 + x0_5 + f0_12 - f0_28 - s0_13 >= 0
s0_12 + x0_5 - f0_12 - f0_28 + s0_13 >= 0
s0_12 - x0_5 + f0_12 - f0_28 + s0_13 >= 0
s0_12 + x0_5 - f0_12 + f0_28 - s0_13 >= 0
s0_12 - x0_5 + f0_12 + f0_28 - s0_13 >= 0
x0_5 - s0_12 + f0_12 + f0_28 + s0_13 >= 0
s0_12 + x0_5 + f0_12 + f0_28 + s0_13 <= 4
s0_13 - x0_6 - f0_13 + f0_29 + s0_14 >= 0
s0_13 + x0_6 + f0_13 - f0_29 - s0_14 >= 0
s0_13 + x0_6 - f0_13 - f0_29 + s0_14 >= 0
s0_13 - x0_6 + f0_13 - f0_29 + s0_14 >= 0
s0_13 + x0_6 - f0_13 + f0_29 - s0_14 >= 0
s0_13 - x0_6 + f0_13 + f0_29 - s0_14 >= 0
x0_6 - s0_13 + f0_13 + f0_29 + s0_14 >= 0
s0_13 + x0_6 + f0_13 + f0_29 + s0_14 <= 4
s0_14 - x0_7 - f0_14 + f0_30 + s0_15 >= 0
s0_14 + x0_7 + f0_14 - f0_30 - s0_15 >= 0
s0_14 + x0_7 - f0_14 - f0_30 + s0_15 >= 0
s0_14 - x0_7 + f0_14 - f0_30 + s0_15 >= 0
s0_14 + x0_7 - f0_14 + f0_30 - s0_15 >= 0
s0_14 - x0_7 + f0_14 + f0_30 - s0_15 >= 0
x0_7 - s0_14 + f0_14 + f0_30 + s0_15 >= 0
s0_14 + x0_7 + f0_14 + f0_30 + s0_15 <= 4
s0_15 - x0_8 - f0_15 + f0_31 + s0_16 >= 0
s0_15 + x0_8 + f0_15 - f0_31 - s0_16 >= 0
s0_15 + x0_8 - f0_15 - f0_31 + s0_16 >= 0
s0_15 - x0_8 + f0_15 - f0_31 + s0_16 >= 0
s0_15 + x0_8 - f0_15 + f0_31 - s0_16 >= 0
s0_15 - x0_8 + f0_15 + f0_31 - s0_16 >= 0
x0_8 - s0_15 + f0_15 + f0_31 + s0_16 >= 0
s0_15 + x0_8 + f0_15 + f0_31 + s0_16 <= 4
d0_0 - x0_16 >= 0
d0_0 - f0_0 >= 0
d0_0 - x1_30 >= 0
x0_16 + f0_0 + x1_30 <= 2
x0_16 + f0_0 + x1_30 - 2 d0_0 >= 0
d0_1 - x0_17 >= 0
d0_1 - f0_1 >= 0
d0_1 - x1_31 >= 0
x0_17 + f0_1 + x1_31 <= 2
x0_17 + f0_1 + x1_31 - 2 d0_1 >= 0
d0_2 - x0_18 >= 0
d0_2 - f0_2 >= 0
d0_2 - x1_16 >= 0
x0_18 + f0_2 + x1_16 <= 2
x0_18 + f0_2 + x1_16 - 2 d0_2 >= 0
d0_3 - x0_19 >= 0
d0_3 - f0_3 >= 0
d0_3 - x1_17 >= 0
x0_19 + f0_3 + x1_17 <= 2
x0_19 + f0_3 + x1_17 - 2 d0_3 >= 0
d0_4 - x0_20 >= 0
d0_4 - f0_4 >= 0
d0_4 - x1_18 >= 0
x0_20 + f0_4 + x1_18 <= 2
x0_20 + f0_4 + x1_18 - 2 d0_4 >= 0
d0_5 - x0_21 >= 0
d0_5 - f0_5 >= 0
d0_5 - x1_19 >= 0
x0_21 + f0_5 + x1_19 <= 2
x0_21 + f0_5 + x1_19 - 2 d0_5 >= 0
d0_6 - x0_22 >= 0
d0_6 - f0_6 >= 0
d0_6 - x1_20 >= 0
x0_22 + f0_6 + x1_20 <= 2
x0_22 + f0_6 + x1_20 - 2 d0_6 >= 0
d0_7 - x0_23 >= 0
d0_7 - f0_7 >= 0
d0_7 - x1_21 >= 0
x0_23 + f0_7 + x1_21 <= 2
x0_23 + f0_7 + x1_21 - 2 d0_7 >= 0
d0_8 - x0_24 >= 0
d0_8 - f0_8 >= 0
d0_8 - x1_22 >= 0
x0_24 + f0_8 + x1_22 <= 2
x0_24 + f0_8 + x1_22 - 2 d0_8 >= 0
d0_9 - x0_25 >= 0
d0_9 - f0_9 >= 0
d0_9 - x1_23 >= 0
x0_25 + f0_9 + x1_23 <= 2
x0_25 + f0_9 + x1_23 - 2 d0_9 >= 0
d0_10 - x0_26 >= 0
d0_10 - f0_10 >= 0
d0_10 - x1_24 >= 0
x0_26 + f0_10 + x1_24 <= 2
x0_26 + f0_10 + x1_24 - 2 d0_10 >= 0
d0_11 - x0_27 >= 0
d0_11 - f0_11 >= 0
d0_11 - x1_25 >= 0
x0_27 + f0_11 + x1_25 <= 2
x0_27 + f0_11 + x1_25 - 2 d0_11 >= 0
d0_12 - x0_28 >= 0
d0_12 - f0_12 >= 0
d0_12 - x1_26 >= 0
x0_28 + f0_12 + x1_26 <= 2
x0_28 + f0_12 + x1_26 - 2 d0_12 >= 0
d0_13 - x0_29 >= 0
d0_13 - f0_13 >= 0
d0_13 - x1_27 >= 0
x0_29 + f0_13 + x1_27 <= 2
x0_29 + f0_13 + x1_27 - 2 d0_13 >= 0
d0_14 - x0_30 >= 0
d0_14 - f0_14 >= 0
d0_14 - x1_28 >= 0
x0_30 + f0_14 + x1_28 <= 2
x0_30 + f0_14 + x1_28 - 2 d0_14 >= 0
d0_15 - x0_31 >= 0
d0_15 - f0_15 >= 0
d0_15 - x1_29 >= 0
x0_31 + f0_15 + x1_29 <= 2
x0_31 + f0_15 + x1_29 - 2 d0_15 >= 0
d0_16 - f0_16 >= 0
d0_16 - x1_16 >= 0
d0_16 - x1_0 >= 0
f0_16 + x1_16 + x1_0 <= 2
f0_16 + x1_16 + x1_0 - 2 d0_16 >= 0
d0_17 - f0_17 >= 0
d0_17 - x1_17 >= 0
d0_17 - x1_1 >= 0
f0_17 + x1_17 + x1_1 <= 2
f0_17 + x1_17 + x1_1 - 2 d0_17 >= 0
d0_18 - f0_18 >= 0
d0_18 - x1_18 >= 0
d0_18 - x1_2 >= 0
f0_18 + x1_18 + x1_2 <= 2
f0_18 + x1_18 + x1_2 - 2 d0_18 >= 0
d0_19 - f0_19 >= 0
d0_19 - x1_19 >= 0
d0_19 - x1_3 >= 0
f0_19 + x1_19 + x1_3 <= 2
f0_19 + x1_19 + x1_3 - 2 d0_19 >= 0
d0_20 - f0_20 >= 0
d0_20 - x1_20 >= 0
d0_20 - x1_4 >= 0
f0_20 + x1_20 + x1_4 <= 2
f0_20 + x1_20 + x1_4 - 2 d0_20 >= 0
d0_21 - f0_21 >= 0
d0_21 - x1_21 >= 0
d0_21 - x1_5 >= 0
f0_21 + x1_21 + x1_5 <= 2
f0_21 + x1_21 + x1_5 - 2 d0_21 >= 0
d0_22 - f0_22 >= 0
d0_22 - x1_22 >= 0
d0_22 - x1_6 >= 0
f0_22 + x1_22 + x1_6 <= 2
f0_22 + x1_22 + x1_6 - 2 d0_22 >= 0
d0_23 - f0_23 >= 0
d0_23 - x1_23 >= 0
d0_23 - x1_7 >= 0
f0_23 + x1_23 + x1_7 <= 2
f0_23 + x1_23 + x1_7 - 2 d0_23 >= 0
d0_24 - f0_24 >= 0
d0_24 - x1_24 >= 0
d0_24 - x1_8 >= 0
f0_24 + x1_24 + x1_8 <= 2
f0_24 + x1_24 + x1_8 - 2 d0_24 >= 0
d0_25 - f0_25 >= 0
d0_25 - x1_25 >= 0
d0_25 - x1_9 >= 0
f0_25 + x1_25 + x1_9 <= 2
f0_25 + x1_25 + x1_9 - 2 d0_25 >= 0
d0_26 - f0_26 >= 0
d0_26 - x1_26 >= 0
d0_26 - x1_10 >= 0
f0_26 + x1_26 + x1_10 <= 2
f0_26 + x1_26 + x1_10 - 2 d0_26 >= 0
d0_27 - f0_27 >= 0
d0_27 - x1_27 >= 0
d0_27 - x1_11 >= 0
f0_27 + x1_27 + x1_11 <= 2
f0_27 + x1_27 + x1_11 - 2 d0_27 >= 0
d0_28 - f0_28 >= 0
d0_28 - x1_28 >= 0
d0_28 - x1_12 >= 0
f0_28 + x1_28 + x1_12 <= 2
f0_28 + x1_28 + x1_12 - 2 d0_28 >= 0
d0_29 - f0_29 >= 0
d0_29 - x1_29 >= 0
d0_29 - x1_13 >= 0
f0_29 + x1_29 + x1_13 <= 2
f0_29 + x1_29 + x1_13 - 2 d0_29 >= 0
d0_30 - f0_30 >= 0
d0_30 - x1_30 >= 0
d0_30 - x1_14 >= 0
f0_30 + x1_30 + x1_14 <= 2
f0_30 + x1_30 + x1_14 - 2 d0_30 >= 0
d0_31 - f0_31 >= 0
d0_31 - x1_31 >= 0
d0_31 - x1_15 >= 0
f0_31 + x1_31 + x1_15 <= 2
f0_31 + x1_31 + x1_15 - 2 d0_31 >= 0
s1_0 = 0
s1_0 - x1_9 - f1_0 + f1_16 + s1_1 >= 0
s1_0 + x1_9 + f1_0 - f1_16 - s1_1 >= 0
s1_0 + x1_9 - f1_0 - f1_16 + s1_1 >= 0
s1_0 - x1_9 + f1_0 - f1_16 + s1_1 >= 0
s1_0 + x1_9 - f1_0 + f1_16 - s1_1 >= 0
s1_0 - x1_9 + f1_0 + f1_16 - s1_1 >= 0
x1_9 - s1_0 + f1_0 + f1_16 + s1_1 >= 0
s1_0 + x1_9 + f1_0 + f1_16 + s1_1 <= 4
s1_1 - x1_10 - f1_1 + f1_17 + s1_2 >= 0
s1_1 + x1_10 + f1_1 - f1_17 - s1_2 >= 0
s1_1 + x1_10 - f1_1 - f1_17 + s1_2 >= 0
s1_1 - x1_10 + f1_1 - f1_17 + s1_2 >= 0
s1_1 + x1_10 - f1_1 + f1_17 - s1_2 >= 0
s1_1 - x1_10 + f1_1 + f1_17 - s1_2 >= 0
x1_10 - s1_1 + f1_1 + f1_17 + s1_2 >= 0
s1_1 + x1_10 + f1_1 + f1_17 + s1_2 <= 4
s1_2 - x1_11 - f1_2 + f1_18 + s1_3 >= 0
s1_2 + x1_11 + f1_2 - f1_18 - s1_3 >= 0
s1_2 + x1_11 - f1_2 - f1_18 + s1_3 >= 0
s1_2 - x1_11 + f1_2 - f1_18 + s1_3 >= 0
s1_2 + x1_11 - f1_2 + f1_18 - s1_3 >= 0
s1_2 - x1_11 + f1_2 + f1_18 - s1_3 >= 0
x1_11 - s1_2 + f1_2 + f1_18 + s1_3 >= 0
s1_2 + x1_11 + f1_2 + f1_18 + s1_3 <= 4
s1_3 - x1_12 - f1_3 + f1_19 + s1_4 >= 0
s1_3 + x1_12 + f1_3 - f1_19 - s1_4 >= 0
s1_3 + x1_12 - f1_3 - f1_19 + s1_4 >= 0
s1_3 - x1_12 + f1_3 - f1_19 + s1_4 >= 0
s1_3 + x1_12 - f1_3 + f1_19 - s1_4 >= 0
s1_3 - x1_12 + f1_3 + f1_19 - s1_4 >= 0
x1_12 - s1_3 + f1_3 + f1_19 + s1_4 >= 0
s1_3 + x1_12 + f1_3 + f1_19 + s1_4 <= 4
s1_4 - x1_13 - f1_4 + f1_20 + s1_5 >= 0
s1_4 + x1_13 + f1_4 - f1_20 - s1_5 >= 0
s1_4 + x1_13 - f1_4 - f1_20 + s1_5 >= 0
s1_4 - x1_13 + f1_4 - f1_20 + s1_5 >= 0
s1_4 + x1_13 - f1_4 + f1_20 - s1_5 >= 0
s1_4 - x1_13 + f1_4 + f1_20 - s1_5 >= 0
x1_13 - s1_4 + f1_4 + f1_20 + s1_5 >= 0
s1_4 + x1_13 + f1_4 + f1_20 + s1_5 <= 4
s1_5 - x1_14 - f1_5 + f1_21 + s1_6 >= 0
s1_5 + x1_14 + f1_5 - f1_21 - s1_6 >= 0
s1_5 + x1_14 - f1_5 - f1_21 + s1_6 >= 0
s1_5 - x1_14 + f1_5 - f1_21 + s1_6 >= 0
s1_5 + x1_14 - f1_5 + f1_21 - s1_6 >= 0
s1_5 - x1_14 + f1_5 + f1_21 - s1_6 >= 0
x1_14 - s1_5 + f1_5 + f1_21 + s1_6 >= 0
s1_5 + x1_14 + f1_5 + f1_21 + s1_6 <= 4
s1_6 - x1_15 - f1_6 + f1_22 + s1_7 >= 0
s1_6 + x1_15 + f1_6 - f1_22 - s1_7 >= 0
s1_6 + x1_15 - f1_6 - f1_22 + s1_7 >= 0
s1_6 - x1_15 + f1_6 - f1_22 + s1_7 >= 0
s1_6 + x1_15 - f1_6 + f1_22 - s1_7 >= 0
s1_6 - x1_15 + f1_6 + f1_22 - s1_7 >= 0
x1_15 - s1_6 + f1_6 + f1_22 + s1_7 >= 0
s1_6 + x1_15 + f1_6 + f1_22 + s1_7 <= 4
s1_7 - x1_0 - f1_7 + f1_23 + s1_8 >= 0
s1_7 + x1_0 + f1_7 - f1_23 - s1_8 >= 0
s1_7 + x1_0 - f1_7 - f1_23 + s1_8 >= 0
s1_7 - x1_0 + f1_7 - f1_23 + s1_8 >= 0
s1_7 + x1_0 - f1_7 + f1_23 - s1_8 >= 0
s1_7 - x1_0 + f1_7 + f1_23 - s1_8 >= 0
x1_0 - s1_7 + f1_7 + f1_23 + s1_8 >= 0
s1_7 + x1_0 + f1_7 + f1_23 + s1_8 <= 4
s1_8 - x1_1 - f1_8 + f1_24 + s1_9 >= 0
s1_8 + x1_1 + f1_8 - f1_24 - s1_9 >= 0
s1_8 + x1_1 - f1_8 - f1_24 + s1_9 >= 0
s1_8 - x1_1 + f1_8 - f1_24 + s1_9 >= 0
s1_8 + x1_1 - f1_8 + f1_24 - s1_9 >= 0
s1_8 - x1_1 + f1_8 + f1_24 - s1_9 >= 0
x1_1 - s1_8 + f1_8 + f1_24 + s1_9 >= 0
s1_8 + x1_1 + f1_8 + f1_24 + s1_9 <= 4
s1_9 - x1_2 - f1_9 + f1_25 + s1_10 >= 0
s1_9 + x1_2 + f1_9 - f1_25 - s1_10 >= 0
s1_9 + x1_2 - f1_9 - f1_25 + s1_10 >= 0
s1_9 - x1_2 + f1_9 - f1_25 + s1_10 >= 0
s1_9 + x1_2 - f1_9 + f1_25 - s1_10 >= 0
s1_9 - x1_2 + f1_9 + f1_25 - s1_10 >= 0
x1_2 - s1_9 + f1_9 + f1_25 + s1_10 >= 0
s1_9 + x1_2 + f1_9 + f1_25 + s1_10 <= 4
s1_10 - x1_3 - f1_10 + f1_26 + s1_11 >= 0
s1_10 + x1_3 + f1_10 - f1_26 - s1_11 >= 0
s1_10 + x1_3 - f1_10 - f1_26 + s1_11 >= 0
s1_10 - x1_3 + f1_10 - f1_26 + s1_11 >= 0
s1_10 + x1_3 - f1_10 + f1_26 - s1_11 >= 0
s1_10 - x1_3 + f1_10 + f1_26 - s1_11 >= 0
x1_3 - s1_10 + f1_10 + f1_26 + s1_11 >= 0
s1_10 + x1_3 + f1_10 + f1_26 + s1_11 <= 4
s1_11 - x1_4 - f1_11 + f1_27 + s1_12 >= 0
s1_11 + x1_4 + f1_11 - f1_27 - s1_12 >= 0
s1_11 + x1_4 - f1_11 - f1_27 + s1_12 >= 0
s1_11 - x1_4 + f1_11 - f1_27 + s1_12 >= 0
s1_11 + x1_4 - f1_11 + f1_27 - s1_12 >= 0
s1_11 - x1_4 + f1_11 + f1_27 - s1_12 >= 0
x1_4 - s1_11 + f1_11 + f1_27 + s1_12 >= 0
s1_11 + x1_4 + f1_11 + f1_27 + s1_12 <= 4
s1_12 - x1_5 - f1_12 + f1_28 + s1_13 >= 0
s1_12 + x1_5 + f1_12 - f1_28 - s1_13 >= 0
s1_12 + x1_5 - f1_12 - f1_28 + s1_13 >= 0
s1_12 - x1_5 + f1_12 - f1_28 + s1_13 >= 0
s1_12 + x1_5 - f1_12 + f1_28 - s1_13 >= 0
s1_12 - x1_5 + f1_12 + f1_28 - s1_13 >= 0
x1_5 - s1_12 + f1_12 + f1_28 + s1_13 >= 0
s1_12 + x1_5 + f1_12 + f1_28 + s1_13 <= 4
s1_13 - x1_6 - f1_13 + f1_29 + s1_14 >= 0
s1_13 + x1_6 + f1_13 - f1_29 - s1_14 >= 0
s1_13 + x1_6 - f1_13 - f1_29 + s1_14 >= 0
s1_13 - x1_6 + f1_13 - f1_29 + s1_14 >= 0
s1_13 + x1_6 - f1_13 + f1_29 - s1_14 >= 0
s1_13 - x1_6 + f1_13 + f1_29 - s1_14 >= 0
x1_6 - s1_13 + f1_13 + f1_29 + s1_14 >= 0
s1_13 + x1_6 + f1_13 + f1_29 + s1_14 <= 4
s1_14 - x1_7 - f1_14 + f1_30 + s1_15 >= 0
s1_14 + x1_7 + f1_14 - f1_30 - s1_15 >= 0
s1_14 + x1_7 - f1_14 - f1_30 + s1_15 >= 0
s1_14 - x1_7 + f1_14 - f1_30 + s1_15 >= 0
s1_14 + x1_7 - f1_14 + f1_30 - s1_15 >= 0
s1_14 - x1_7 + f1_14 + f1_30 - s1_15 >= 0
x1_7 - s1_14 + f1_14 + f1_30 + s1_15 >= 0
s1_14 + x1_7 + f1_14 + f1_30 + s1_15 <= 4
s1_15 - x1_8 - f1_15 + f1_31 + s1_16 >= 0
s1_15 + x1_8 + f1_15 - f1_31 - s1_16 >= 0
s1_15 + x1_8 - f1_15 - f1_31 + s1_16 >= 0
s1_15 - x1_8 + f1_15 - f1_31 + s1_16 >= 0
s1_15 + x1_8 - f1_15 + f1_31 - s1_16 >= 0
s1_15 - x1_8 + f1_15 + f1_31 - s1_16 >= 0
x1_8 - s1_15 + f1_15 + f1_31 + s1_16 >= 0
s1_15 + x1_8 + f1_15 + f1_31 + s1_16 <= 4
d1_0 - x1_16 >= 0
d1_0 - f1_0 >= 0
d1_0 - x2_30 >= 0
x1_16 + f1_0 + x2_30 <= 2
x1_16 + f1_0 + x2_30 - 2 d1_0 >= 0
d1_1 - x1_17 >= 0
d1_1 - f1_1 >= 0
d1_1 - x2_31 >= 0
x1_17 + f1_1 + x2_31 <= 2
x1_17 + f1_1 + x2_31 - 2 d1_1 >= 0
d1_2 - x1_18 >= 0
d1_2 - f1_2 >= 0
d1_2 - x2_16 >= 0
x1_18 + f1_2 + x2_16 <= 2
x1_18 + f1_2 + x2_16 - 2 d1_2 >= 0
d1_3 - x1_19 >= 0
d1_3 - f1_3 >= 0
d1_3 - x2_17 >= 0
x1_19 + f1_3 + x2_17 <= 2
x1_19 + f1_3 + x2_17 - 2 d1_3 >= 0
d1_4 - x1_20 >= 0
d1_4 - f1_4 >= 0
d1_4 - x2_18 >= 0
x1_20 + f1_4 + x2_18 <= 2
x1_20 + f1_4 + x2_18 - 2 d1_4 >= 0
d1_5 - x1_21 >= 0
d1_5 - f1_5 >= 0
d1_5 - x2_19 >= 0
x1_21 + f1_5 + x2_19 <= 2
x1_21 + f1_5 + x2_19 - 2 d1_5 >= 0
d1_6 - x1_22 >= 0
d1_6 - f1_6 >= 0
d1_6 - x2_20 >= 0
x1_22 + f1_6 + x2_20 <= 2
x1_22 + f1_6 + x2_20 - 2 d1_6 >= 0
d1_7 - x1_23 >= 0
d1_7 - f1_7 >= 0
d1_7 - x2_21 >= 0
x1_23 + f1_7 + x2_21 <= 2
x1_23 + f1_7 + x2_21 - 2 d1_7 >= 0
d1_8 - x1_24 >= 0
d1_8 - f1_8 >= 0
d1_8 - x2_22 >= 0
x1_24 + f1_8 + x2_22 <= 2
x1_24 + f1_8 + x2_22 - 2 d1_8 >= 0
d1_9 - x1_25 >= 0
d1_9 - f1_9 >= 0
d1_9 - x2_23 >= 0
x1_25 + f1_9 + x2_23 <= 2
x1_25 + f1_9 + x2_23 - 2 d1_9 >= 0
d1_10 - x1_26 >= 0
d1_10 - f1_10 >= 0
d1_10 - x2_24 >= 0
x1_26 + f1_10 + x2_24 <= 2
x1_26 + f1_10 + x2_24 - 2 d1_10 >= 0
d1_11 - x1_27 >= 0
d1_11 - f1_11 >= 0
d1_11 - x2_25 >= 0
x1_27 + f1_11 + x2_25 <= 2
x1_27 + f1_11 + x2_25 - 2 d1_11 >= 0
d1_12 - x1_28 >= 0
d1_12 - f1_12 >= 0
d1_12 - x2_26 >= 0
x1_28 + f1_12 + x2_26 <= 2
x1_28 + f1_12 + x2_26 - 2 d1_12 >= 0
d1_13 - x1_29 >= 0
d1_13 - f1_13 >= 0
d1_13 - x2_27 >= 0
x1_29 + f1_13 + x2_27 <= 2
x1_29 + f1_13 + x2_27 - 2 d1_13 >= 0
d1_14 - x1_30 >= 0
d1_14 - f1_14 >= 0
d1_14 - x2_28 >= 0
x1_30 + f1_14 + x2_28 <= 2
x1_30 + f1_14 + x2_28 - 2 d1_14 >= 0
d1_15 - x1_31 >= 0
d1_15 - f1_15 >= 0
d1_15 - x2_29 >= 0
x1_31 + f1_15 + x2_29 <= 2
x1_31 + f1_15 + x2_29 - 2 d1_15 >= 0
d1_16 - f1_16 >= 0
d1_16 - x2_16 >= 0
d1_16 - x2_0 >= 0
f1_16 + x2_16 + x2_0 <= 2
f1_16 + x2_16 + x2_0 - 2 d1_16 >= 0
d1_17 - f1_17 >= 0
d1_17 - x2_17 >= 0
d1_17 - x2_1 >= 0
f1_17 + x2_17 + x2_1 <= 2
f1_17 + x2_17 + x2_1 - 2 d1_17 >= 0
d1_18 - f1_18 >= 0
d1_18 - x2_18 >= 0
d1_18 - x2_2 >= 0
f1_18 + x2_18 + x2_2 <= 2
f1_18 + x2_18 + x2_2 - 2 d1_18 >= 0
d1_19 - f1_19 >= 0
d1_19 - x2_19 >= 0
d1_19 - x2_3 >= 0
f1_19 + x2_19 + x2_3 <= 2
f1_19 + x2_19 + x2_3 - 2 d1_19 >= 0
d1_20 - f1_20 >= 0
d1_20 - x2_20 >= 0
d1_20 - x2_4 >= 0
f1_20 + x2_20 + x2_4 <= 2
f1_20 + x2_20 + x2_4 - 2 d1_20 >= 0
d1_21 - f1_21 >= 0
d1_21 - x2_21 >= 0
d1_21 - x2_5 >= 0
f1_21 + x2_21 + x2_5 <= 2
f1_21 + x2_21 + x2_5 - 2 d1_21 >= 0
d1_22 - f1_22 >= 0
d1_22 - x2_22 >= 0
d1_22 - x2_6 >= 0
f1_22 + x2_22 + x2_6 <= 2
f1_22 + x2_22 + x2_6 - 2 d1_22 >= 0
d1_23 - f1_23 >= 0
d1_23 - x2_23 >= 0
d1_23 - x2_7 >= 0
f1_23 + x2_23 + x2_7 <= 2
f1_23 + x2_23 + x2_7 - 2 d1_23 >= 0
d1_24 - f1_24 >= 0
d1_24 - x2_24 >= 0
d1_24 - x2_8 >= 0
f1_24 + x2_24 + x2_8 <= 2
f1_24 + x2_24 + x2_8 - 2 d1_24 >= 0
d1_25 - f1_25 >= 0
d1_25 - x2_25 >= 0
d1_25 - x2_9 >= 0
f1_25 + x2_25 + x2_9 <= 2
f1_25 + x2_25 + x2_9 - 2 d1_25 >= 0
d1_26 - f1_26 >= 0
d1_26 - x2_26 >= 0
d1_26 - x2_10 >= 0
f1_26 + x2_26 + x2_10 <= 2
f1_26 + x2_26 + x2_10 - 2 d1_26 >= 0
d1_27 - f1_27 >= 0
d1_27 - x2_27 >= 0
d1_27 - x2_11 >= 0
f1_27 + x2_27 + x2_11 <= 2
f1_27 + x2_27 + x2_11 - 2 d1_27 >= 0
d1_28 - f1_28 >= 0
d1_28 - x2_28 >= 0
d1_28 - x2_12 >= 0
f1_28 + x2_28 + x2_12 <= 2
f1_28 + x2_28 + x2_12 - 2 d1_28 >= 0
d1_29 - f1_29 >= 0
d1_29 - x2_29 >= 0
d1_29 - x2_13 >= 0
f1_29 + x2_29 + x2_13 <= 2
f1_29 + x2_29 + x2_13 - 2 d1_29 >= 0
d1_30 - f1_30 >= 0
d1_30 - x2_30 >= 0
d1_30 - x2_14 >= 0
f1_30 + x2_30 + x2_14 <= 2
f1_30 + x2_30 + x2_14 - 2 d1_30 >= 0
d1_31 - f1_31 >= 0
d1_31 - x2_31 >= 0
d1_31 - x2_15 >= 0
f1_31 + x2_31 + x2_15 <= 2
f1_31 + x2_31 + x2_15 - 2 d1_31 >= 0
s2_0 = 0
s2_0 - x2_9 - f2_0 + f2_16 + s2_1 >= 0
s2_0 + x2_9 + f2_0 - f2_16 - s2_1 >= 0
s2_0 + x2_9 - f2_0 - f2_16 + s2_1 >= 0
s2_0 - x2_9 + f2_0 - f2_16 + s2_1 >= 0
s2_0 + x2_9 - f2_0 + f2_16 - s2_1 >= 0
s2_0 - x2_9 + f2_0 + f2_16 - s2_1 >= 0
x2_9 - s2_0 + f2_0 + f2_16 + s2_1 >= 0
s2_0 + x2_9 + f2_0 + f2_16 + s2_1 <= 4
s2_1 - x2_10 - f2_1 + f2_17 + s2_2 >= 0
s2_1 + x2_10 + f2_1 - f2_17 - s2_2 >= 0
s2_1 + x2_10 - f2_1 - f2_17 + s2_2 >= 0
s2_1 - x2_10 + f2_1 - f2_17 + s2_2 >= 0
s2_1 + x2_10 - f2_1 + f2_17 - s2_2 >= 0
s2_1 - x2_10 + f2_1 + f2_17 - s2_2 >= 0
x2_10 - s2_1 + f2_1 + f2_17 + s2_2 >= 0
s2_1 + x2_10 + f2_1 + f2_17 + s2_2 <= 4
s2_2 - x2_11 - f2_2 + f2_18 + s2_3 >= 0
s2_2 + x2_11 + f2_2 - f2_18 - s2_3 >= 0
s2_2 + x2_11 - f2_2 - f2_18 + s2_3 >= 0
s2_2 - x2_11 + f2_2 - f2_18 + s2_3 >= 0
s2_2 + x2_11 - f2_2 + f2_18 - s2_3 >= 0
s2_2 - x2_11 + f2_2 + f2_18 - s2_3 >= 0
x2_11 - s2_2 + f2_2 + f2_18 + s2_3 >= 0
s2_2 + x2_11 + f2_2 + f2_18 + s2_3 <= 4
s2_3 - x2_12 - f2_3 + f2_19 + s2_4 >= 0
s2_3 + x2_12 + f2_3 - f2_19 - s2_4 >= 0
s2_3 + x2_12 - f2_3 - f2_19 + s2_4 >= 0
s2_3 - x2_12 + f2_3 - f2_19 + s2_4 >= 0
s2_3 + x2_12 - f2_3 + f2_19 - s2_4 >= 0
s2_3 - x2_12 + f2_3 + f2_19 - s2_4 >= 0
x2_12 - s2_3 + f2_3 + f2_19 + s2_4 >= 0
s2_3 + x2_12 + f2_3 + f2_19 + s2_4 <= 4
s2_4 - x2_13 - f2_4 + f2_20 + s2_5 >= 0
s2_4 + x2_13 + f2_4 - f2_20 - s2_5 >= 0
s2_4 + x2_13 - f2_4 - f2_20 + s2_5 >= 0
s2_4 - x2_13 + f2_4 - f2_20 + s2_5 >= 0
s2_4 + x2_13 - f2_4 + f2_20 - s2_5 >= 0
s2_4 - x2_13 + f2_4 + f2_20 - s2_5 >= 0
x2_13 - s2_4 + f2_4 + f2_20 + s2_5 >= 0
s2_4 + x2_13 + f2_4 + f2_20 + s2_5 <= 4
s2_5 - x2_14 - f2_5 + f2_21 + s2_6 >= 0
s2_5 + x2_14 + f2_5 - f2_21 - s2_6 >= 0
s2_5 + x2_14 - f2_5 - f2_21 + s2_6 >= 0
s2_5 - x2_14 + f2_5 - f2_21 + s2_6 >= 0
s2_5 + x2_14 - f2_5 + f2_21 - s2_6 >= 0
s2_5 - x2_14 + f2_5 + f2_21 - s2_6 >= 0
x2_14 - s2_5 + f2_5 + f2_21 + s2_6 >= 0
s2_5 + x2_14 + f2_5 + f2_21 + s2_6 <= 4
s2_6 - x2_15 - f2_6 + f2_22 + s2_7 >= 0
s2_6 + x2_15 + f2_6 - f2_22 - s2_7 >= 0
s2_6 + x2_15 - f2_6 - f2_22 + s2_7 >= 0
s2_6 - x2_15 + f2_6 - f2_22 + s2_7 >= 0
s2_6 + x2_15 - f2_6 + f2_22 - s2_7 >= 0
s2_6 - x2_15 + f2_6 + f2_22 - s2_7 >= 0
x2_15 - s2_6 + f2_6 + f2_22 + s2_7 >= 0
s2_6 + x2_15 + f2_6 + f2_22 + s2_7 <= 4
s2_7 - x2_0 - f2_7 + f2_23 + s2_8 >= 0
s2_7 + x2_0 + f2_7 - f2_23 - s2_8 >= 0
s2_7 + x2_0 - f2_7 - f2_23 + s2_8 >= 0
s2_7 - x2_0 + f2_7 - f2_23 + s2_8 >= 0
s2_7 + x2_0 - f2_7 + f2_23 - s2_8 >= 0
s2_7 - x2_0 + f2_7 + f2_23 - s2_8 >= 0
x2_0 - s2_7 + f2_7 + f2_23 + s2_8 >= 0
s2_7 + x2_0 + f2_7 + f2_23 + s2_8 <= 4
s2_8 - x2_1 - f2_8 + f2_24 + s2_9 >= 0
s2_8 + x2_1 + f2_8 - f2_24 - s2_9 >= 0
s2_8 + x2_1 - f2_8 - f2_24 + s2_9 >= 0
s2_8 - x2_1 + f2_8 - f2_24 + s2_9 >= 0
s2_8 + x2_1 - f2_8 + f2_24 - s2_9 >= 0
s2_8 - x2_1 + f2_8 + f2_24 - s2_9 >= 0
x2_1 - s2_8 + f2_8 + f2_24 + s2_9 >= 0
s2_8 + x2_1 + f2_8 + f2_24 + s2_9 <= 4
s2_9 - x2_2 - f2_9 + f2_25 + s2_10 >= 0
s2_9 + x2_2 + f2_9 - f2_25 - s2_10 >= 0
s2_9 + x2_2 - f2_9 - f2_25 + s2_10 >= 0
s2_9 - x2_2 + f2_9 - f2_25 + s2_10 >= 0
s2_9 + x2_2 - f2_9 + f2_25 - s2_10 >= 0
s2_9 - x2_2 + f2_9 + f2_25 - s2_10 >= 0
x2_2 - s2_9 + f2_9 + f2_25 + s2_10 >= 0
s2_9 + x2_2 + f2_9 + f2_25 + s2_10 <= 4
s2_10 - x2_3 - f2_10 + f2_26 + s2_11 >= 0
s2_10 + x2_3 + f2_10 - f2_26 - s2_11 >= 0
s2_10 + x2_3 - f2_10 - f2_26 + s2_11 >= 0
s2_10 - x2_3 + f2_10 - f2_26 + s2_11 >= 0
s2_10 + x2_3 - f2_10 + f2_26 - s2_11 >= 0
s2_10 - x2_3 + f2_10 + f2_26 - s2_11 >= 0
x2_3 - s2_10 + f2_10 + f2_26 + s2_11 >= 0
s2_10 + x2_3 + f2_10 + f2_26 + s2_11 <= 4
s2_11 - x2_4 - f2_11 + f2_27 + s2_12 >= 0
s2_11 + x2_4 + f2_11 - f2_27 - s2_12 >= 0
s2_11 + x2_4 - f2_11 - f2_27 + s2_12 >= 0
s2_11 - x2_4 + f2_11 - f2_27 + s2_12 >= 0
s2_11 + x2_4 - f2_11 + f2_27 - s2_12 >= 0
s2_11 - x2_4 + f2_11 + f2_27 - s2_12 >= 0
x2_4 - s2_11 + f2_11 + f2_27 + s2_12 >= 0
s2_11 + x2_4 + f2_11 + f2_27 + s2_12 <= 4
s2_12 - x2_5 - f2_12 + f2_28 + s2_13 >= 0
s2_12 + x2_5 + f2_12 - f2_28 - s2_13 >= 0
s2_12 + x2_5 - f2_12 - f2_28 + s2_13 >= 0
s2_12 - x2_5 + f2_12 - f2_28 + s2_13 >= 0
s2_12 + x2_5 - f2_12 + f2_28 - s2_13 >= 0
s2_12 - x2_5 + f2_12 + f2_28 - s2_13 >= 0
x2_5 - s2_12 + f2_12 + f2_28 + s2_13 >= 0
s2_12 + x2_5 + f2_12 + f2_28 + s2_13 <= 4
s2_13 - x2_6 - f2_13 + f2_29 + s2_14 >= 0
s2_13 + x2_6 + f2_13 - f2_29 - s2_14 >= 0
s2_13 + x2_6 - f2_13 - f2_29 + s2_14 >= 0
s2_13 - x2_6 + f2_13 - f2_29 + s2_14 >= 0
s2_13 + x2_6 - f2_13 + f2_29 - s2_14 >= 0
s2_13 - x2_6 + f2_13 + f2_29 - s2_14 >= 0
x2_6 - s2_13 + f2_13 + f2_29 + s2_14 >= 0
s2_13 + x2_6 + f2_13 + f2_29 + s2_14 <= 4
s2_14 - x2_7 - f2_14 + f2_30 + s2_15 >= 0
s2_14 + x2_7 + f2_14 - f2_30 - s2_15 >= 0
s2_14 + x2_7 - f2_14 - f2_30 + s2_15 >= 0
s2_14 - x2_7 + f2_14 - f2_30 + s2_15 >= 0
s2_14 + x2_7 - f2_14 + f2_30 - s2_15 >= 0
s2_14 - x2_7 + f2_14 + f2_30 - s2_15 >= 0
x2_7 - s2_14 + f2_14 + f2_30 + s2_15 >= 0
s2_14 + x2_7 + f2_14 + f2_30 + s2_15 <= 4
s2_15 - x2_8 - f2_15 + f2_31 + s2_16 >= 0
s2_15 + x2_8 + f2_15 - f2_31 - s2_16 >= 0
s2_15 + x2_8 - f2_15 - f2_31 + s2_16 >= 0
s2_15 - x2_8 + f2_15 - f2_31 + s2_16 >= 0
s2_15 + x2_8 - f2_15 + f2_31 - s2_16 >= 0
s2_15 - x2_8 + f2_15 + f2_31 - s2_16 >= 0
x2_8 - s2_15 + f2_15 + f2_31 + s2_16 >= 0
s2_15 + x2_8 + f2_15 + f2_31 + s2_16 <= 4
d2_0 - x2_16 >= 0
d2_0 - f2_0 >= 0
d2_0 - x3_30 >= 0
x2_16 + f2_0 + x3_30 <= 2
x2_16 + f2_0 + x3_30 - 2 d2_0 >= 0
d2_1 - x2_17 >= 0
d2_1 - f2_1 >= 0
d2_1 - x3_31 >= 0
x2_17 + f2_1 + x3_31 <= 2
x2_17 + f2_1 + x3_31 - 2 d2_1 >= 0
d2_2 - x2_18 >= 0
d2_2 - f2_2 >= 0
d2_2 - x3_16 >= 0
x2_18 + f2_2 + x3_16 <= 2
x2_18 + f2_2 + x3_16 - 2 d2_2 >= 0
d2_3 - x2_19 >= 0
d2_3 - f2_3 >= 0
d2_3 - x3_17 >= 0
x2_19 + f2_3 + x3_17 <= 2
x2_19 + f2_3 + x3_17 - 2 d2_3 >= 0
d2_4 - x2_20 >= 0
d2_4 - f2_4 >= 0
d2_4 - x3_18 >= 0
x2_20 + f2_4 + x3_18 <= 2
x2_20 + f2_4 + x3_18 - 2 d2_4 >= 0
d2_5 - x2_21 >= 0
d2_5 - f2_5 >= 0
d2_5 - x3_19 >= 0
x2_21 + f2_5 + x3_19 <= 2
x2_21 + f2_5 + x3_19 - 2 d2_5 >= 0
d2_6 - x2_22 >= 0
d2_6 - f2_6 >= 0
d2_6 - x3_20 >= 0
x2_22 + f2_6 + x3_20 <= 2
x2_22 + f2_6 + x3_20 - 2 d2_6 >= 0
d2_7 - x2_23 >= 0
d2_7 - f2_7 >= 0
d2_7 - x3_21 >= 0
x2_23 + f2_7 + x3_21 <= 2
x2_23 + f2_7 + x3_21 - 2 d2_7 >= 0
d2_8 - x2_24 >= 0
d2_8 - f2_8 >= 0
d2_8 - x3_22 >= 0
x2_24 + f2_8 + x3_22 <= 2
x2_24 + f2_8 + x3_22 - 2 d2_8 >= 0
d2_9 - x2_25 >= 0
d2_9 - f2_9 >= 0
d2_9 - x3_23 >= 0
x2_25 + f2_9 + x3_23 <= 2
x2_25 + f2_9 + x3_23 - 2 d2_9 >= 0
d2_10 - x2_26 >= 0
d2_10 - f2_10 >= 0
d2_10 - x3_24 >= 0
x2_26 + f2_10 + x3_24 <= 2
x2_26 + f2_10 + x3_24 - 2 d2_10 >= 0
d2_11 - x2_27 >= 0
d2_11 - f2_11 >= 0
d2_11 - x3_25 >= 0
x2_27 + f2_11 + x3_25 <= 2
x2_27 + f2_11 + x3_25 - 2 d2_11 >= 0
d2_12 - x2_28 >= 0
d2_12 - f2_12 >= 0
d2_12 - x3_26 >= 0
x2_28 + f2_12 + x3_26 <= 2
x2_28 + f2_12 + x3_26 - 2 d2_12 >= 0
d2_13 - x2_29 >= 0
d2_13 - f2_13 >= 0
d2_13 - x3_27 >= 0
x2_29 + f2_13 + x3_27 <= 2
x2_29 + f2_13 + x3_27 - 2 d2_13 >= 0
d2_14 - x2_30 >= 0
d2_14 - f2_14 >= 0
d2_14 - x3_28 >= 0
x2_30 + f2_14 + x3_28 <= 2
x2_30 + f2_14 + x3_28 - 2 d2_14 >= 0
d2_15 - x2_31 >= 0
d2_15 - f2_15 >= 0
d2_15 - x3_29 >= 0
x2_31 + f2_15 + x3_29 <= 2
x2_31 + f2_15 + x3_29 - 2 d2_15 >= 0
d2_16 - f2_16 >= 0
d2_16 - x3_16 >= 0
d2_16 - x3_0 >= 0
f2_16 + x3_16 + x3_0 <= 2
f2_16 + x3_16 + x3_0 - 2 d2_16 >= 0
d2_17 - f2_17 >= 0
d2_17 - x3_17 >= 0
d2_17 - x3_1 >= 0
f2_17 + x3_17 + x3_1 <= 2
f2_17 + x3_17 + x3_1 - 2 d2_17 >= 0
d2_18 - f2_18 >= 0
d2_18 - x3_18 >= 0
d2_18 - x3_2 >= 0
f2_18 + x3_18 + x3_2 <= 2
f2_18 + x3_18 + x3_2 - 2 d2_18 >= 0
d2_19 - f2_19 >= 0
d2_19 - x3_19 >= 0
d2_19 - x3_3 >= 0
f2_19 + x3_19 + x3_3 <= 2
f2_19 + x3_19 + x3_3 - 2 d2_19 >= 0
d2_20 - f2_20 >= 0
d2_20 - x3_20 >= 0
d2_20 - x3_4 >= 0
f2_20 + x3_20 + x3_4 <= 2
f2_20 + x3_20 + x3_4 - 2 d2_20 >= 0
d2_21 - f2_21 >= 0
d2_21 - x3_21 >= 0
d2_21 - x3_5 >= 0
f2_21 + x3_21 + x3_5 <= 2
f2_21 + x3_21 + x3_5 - 2 d2_21 >= 0
d2_22 - f2_22 >= 0
d2_22 - x3_22 >= 0
d2_22 - x3_6 >= 0
f2_22 + x3_22 + x3_6 <= 2
f2_22 + x3_22 + x3_6 - 2 d2_22 >= 0
d2_23 - f2_23 >= 0
d2_23 - x3_23 >= 0
d2_23 - x3_7 >= 0
f2_23 + x3_23 + x3_7 <= 2
f2_23 + x3_23 + x3_7 - 2 d2_23 >= 0
d2_24 - f2_24 >= 0
d2_24 - x3_24 >= 0
d2_24 - x3_8 >= 0
f2_24 + x3_24 + x3_8 <= 2
f2_24 + x3_24 + x3_8 - 2 d2_24 >= 0
d2_25 - f2_25 >= 0
d2_25 - x3_25 >= 0
d2_25 - x3_9 >= 0
f2_25 + x3_25 + x3_9 <= 2
f2_25 + x3_25 + x3_9 - 2 d2_25 >= 0
d2_26 - f2_26 >= 0
d2_26 - x3_26 >= 0
d2_26 - x3_10 >= 0
f2_26 + x3_26 + x3_10 <= 2
f2_26 + x3_26 + x3_10 - 2 d2_26 >= 0
d2_27 - f2_27 >= 0
d2_27 - x3_27 >= 0
d2_27 - x3_11 >= 0
f2_27 + x3_27 + x3_11 <= 2
f2_27 + x3_27 + x3_11 - 2 d2_27 >= 0
d2_28 - f2_28 >= 0
d2_28 - x3_28 >= 0
d2_28 - x3_12 >= 0
f2_28 + x3_28 + x3_12 <= 2
f2_28 + x3_28 + x3_12 - 2 d2_28 >= 0
d2_29 - f2_29 >= 0
d2_29 - x3_29 >= 0
d2_29 - x3_13 >= 0
f2_29 + x3_29 + x3_13 <= 2
f2_29 + x3_29 + x3_13 - 2 d2_29 >= 0
d2_30 - f2_30 >= 0
d2_30 - x3_30 >= 0
d2_30 - x3_14 >= 0
f2_30 + x3_30 + x3_14 <= 2
f2_30 + x3_30 + x3_14 - 2 d2_30 >= 0
d2_31 - f2_31 >= 0
d2_31 - x3_31 >= 0
d2_31 - x3_15 >= 0
f2_31 + x3_31 + x3_15 <= 2
f2_31 + x3_31 + x3_15 - 2 d2_31 >= 0


Binary

x0_0
x0_1
x0_2
x0_3
x0_4
x0_5
x0_6
x0_7
x0_8
x0_9
x0_10
x0_11
x0_12
x0_13
x0_14
x0_15
x0_16
x0_17
x0_18
x0_19
x0_20
x0_21
x0_22
x0_23
x0_24
x0_25
x0_26
x0_27
x0_28
x0_29
x0_30
x0_31
x1_0
x1_1
x1_2
x1_3
x1_4
x1_5
x1_6
x1_7
x1_8
x1_9
x1_10
x1_11
x1_12
x1_13
x1_14
x1_15
x1_16
x1_17
x1_18
x1_19
x1_20
x1_21
x1_22
x1_23
x1_24
x1_25
x1_26
x1_27
x1_28
x1_29
x1_30
x1_31
f0_0
f0_1
f0_2
f0_3
f0_4
f0_5
f0_6
f0_7
f0_8
f0_9
f0_10
f0_11
f0_12
f0_13
f0_14
f0_15
f0_16
f0_17
f0_18
f0_19
f0_20
f0_21
f0_22
f0_23
f0_24
f0_25
f0_26
f0_27
f0_28
f0_29
f0_30
f0_31
s0_0
s0_1
s0_2
s0_3
s0_4
s0_5
s0_6
s0_7
s0_8
s0_9
s0_10
s0_11
s0_12
s0_13
s0_14
s0_15
s0_16
d0_0
d0_1
d0_2
d0_3
d0_4
d0_5
d0_6
d0_7
d0_8
d0_9
d0_10
d0_11
d0_12
d0_13
d0_14
d0_15
d0_16
d0_17
d0_18
d0_19
d0_20
d0_21
d0_22
d0_23
d0_24
d0_25
d0_26
d0_27
d0_28
d0_29
d0_30
d0_31
x2_0
x2_1
x2_2
x2_3
x2_4
x2_5
x2_6
x2_7
x2_8
x2_9
x2_10
x2_11
x2_12
x2_13
x2_14
x2_15
x2_16
x2_17
x2_18
x2_19
x2_20
x2_21
x2_22
x2_23
x2_24
x2_25
x2_26
x2_27
x2_28
x2_29
x2_30
x2_31
f1_0
f1_1
f1_2
f1_3
f1_4
f1_5
f1_6
f1_7
f1_8
f1_9
f1_10
f1_11
f1_12
f1_13
f1_14
f1_15
f1_16
f1_17
f1_18
f1_19
f1_20
f1_21
f1_22
f1_23
f1_24
f1_25
f1_26
f1_27
f1_28
f1_29
f1_30
f1_31
s1_0
s1_1
s1_2
s1_3
s1_4
s1_5
s1_6
s1_7
s1_8
s1_9
s1_10
s1_11
s1_12
s1_13
s1_14
s1_15
s1_16
d1_0
d1_1
d1_2
d1_3
d1_4
d1_5
d1_6
d1_7
d1_8
d1_9
d1_10
d1_11
d1_12
d1_13
d1_14
d1_15
d1_16
d1_17
d1_18
d1_19
d1_20
d1_21
d1_22
d1_23
d1_24
d1_25
d1_26
d1_27
d1_28
d1_29
d1_30
d1_31
x3_0
x3_1
x3_2
x3_3
x3_4
x3_5
x3_6
x3_7
x3_8
x3_9
x3_10
x3_11
x3_12
x3_13
x3_14
x3_15
x3_16
x3_17
x3_18
x3_19
x3_20
x3_21
x3_22
x3_23
x3_24
x3_25
x3_26
x3_27
x3_28
x3_29
x3_30
x3_31
f2_0
f2_1
f2_2
f2_3
f2_4
f2_5
f2_6
f2_7
f2_8
f2_9
f2_10
f2_11
f2_12
f2_13
f2_14
f2_15
f2_16
f2_17
f2_18
f2_19
f2_20
f2_21
f2_22
f2_23
f2_24
f2_25
f2_26
f2_27
f2_28
f2_29
f2_30
f2_31
s2_0
s2_1
s2_2
s2_3
s2_4
s2_5
s2_6
s2_7
s2_8
s2_9
s2_10
s2_11
s2_12
s2_13
s2_14
s2_15
s2_16
d2_0
d2_1
d2_2
d2_3
d2_4
d2_5
d2_6
d2_7
d2_8
d2_9
d2_10
d2_11
d2_12
d2_13
d2_14
d2_15
d2_16
d2_17
d2_18
d2_19
d2_20
d2_21
d2_22
d2_23
d2_24
d2_25
d2_26
d2_27
d2_28
d2_29
d2_30
d2_31
End